NAME : pairopt
TYPE : ACVRP
DIMENSION : 7
EDGE_WEIGHT_TYPE : EXPLICIT
EDGE_WEIGHT_FORMAT : FULL_MATRIX
CAPACITY : 15000
VEHICLES : 2
EDGE_WEIGHT_SECTION
100000 -100000 -100000 100000 100000 100000 100000 
100000 100000 1000000 51188 51195 51355 50744 
100000 1000000 100000 51271 51363 51477 525 
0 51188 51271 100000 420 265 102061 
0 51195 51363 420 100000 316 102500 
0 51355 51477 265 316 100000 102549 
0 50744 525 102061 102500 102549 100000 
DEMAND_SECTION
1 0
2 0
3 0
4 5000
5 5000
6 5000
7 5000
DEPOT_SECTION
1
EOF